[2026-03-24T16:32:22.878Z] Pipeline "set_vm-3-t2_vm-3-t2_s016_g002" → 2026_03_24_16_32_22_set_vm-3-t2_vm-3-t2_s016_g002_max.sol
Set parameter Username
Set parameter LicenseID to value 2796068
Set parameter LogFile to value "gurobi.log"
Using license file /opt/gurobi/gurobi.lic
Academic license - for non-commercial use only - expires 2027-03-23

Gurobi Optimizer version 13.0.1 build v13.0.1rc0 (linux64 - "Ubuntu 24.04.4 LTS")
Copyright (c) 2026, Gurobi Optimization, LLC

Warning: Duplicate section found (read 'binary') - Is a variable name equal to an LP file format keyword?
Warning: Duplicate section found (read 'binary') - Is a variable name equal to an LP file format keyword?
Warning: Duplicate section found (read 'binary') - Is a variable name equal to an LP file format keyword?
Warning: Duplicate section found (read 'binary') - Is a variable name equal to an LP file format keyword?
Warning: Duplicate section found (read 'binary') - Is a variable name equal to an LP file format keyword?
Warning: Duplicate section found (read 'binary') - Is a variable name equal to an LP file format keyword?
Warning: Duplicate section found (read 'binary') - Is a variable name equal to an LP file format keyword?
Warning: Duplicate section found (read 'binary') - Is a variable name equal to an LP file format keyword?
Warning: Duplicate section found (read 'binary') - Is a variable name equal to an LP file format keyword?
Warning: Duplicate section found (read 'binary') - Is a variable name equal to an LP file format keyword?
Warning: Further warnings of this type will be omitted.
Read LP format model from file /root/bgw/data/uploads/2026_03_24_16_32_22_set_vm-3-t2_vm-3-t2_s016_g002_max.lp
Reading time = 0.01 seconds
: 5563 rows, 428 columns, 17006 nonzeros

Using Gurobi shared library /opt/gurobi1301/linux64/lib/libgurobi.so.13.0.1

CPU model: AMD EPYC-Genoa Processor, instruction set [SSE2|AVX|AVX2|AVX512]
Thread count: 16 physical cores, 16 logical processors, using up to 16 threads

Optimize a model with 5563 rows, 428 columns and 17006 nonzeros (Max)
Model fingerprint: 0x41554954
Model has 17 linear objective coefficients
Variable types: 43 continuous, 385 integer (385 binary)
Coefficient statistics:
  Matrix range     [1e+00, 3e+01]
  Objective range  [1e+00, 1e+00]
  Bounds range     [1e+00, 1e+00]
  RHS range        [1e+00, 3e+01]

Found heuristic solution: objective 17.0000000
Presolve removed 330 rows and 83 columns
Presolve time: 0.03s
Presolved: 5233 rows, 345 columns, 15860 nonzeros
Variable types: 0 continuous, 345 integer (338 binary)
Found heuristic solution: objective 19.0000000

Root relaxation: objective 9.000000e+01, 283 iterations, 0.02 seconds (0.02 work units)

    Nodes    |    Current Node    |     Objective Bounds      |     Work
 Expl Unexpl |  Obj  Depth IntInf | Incumbent    BestBd   Gap | It/Node Time

     0     0   90.00000    0   27   19.00000   90.00000   374%     -    0s
H    0     0                      31.0000000   90.00000   190%     -    0s
H    0     0                      46.0000000   90.00000  95.7%     -    0s
     0     0   90.00000    0   29   46.00000   90.00000  95.7%     -    0s
     0     0   90.00000    0   28   46.00000   90.00000  95.7%     -    0s
     0     0   90.00000    0   24   46.00000   90.00000  95.7%     -    0s
H    0     0                      47.0000000   90.00000  91.5%     -    0s
     0     0   83.00000    0   25   47.00000   83.00000  76.6%     -    0s
     0     0   83.00000    0   24   47.00000   83.00000  76.6%     -    0s
     0     0   83.00000    0   24   47.00000   83.00000  76.6%     -    0s
     0     0   83.00000    0   25   47.00000   83.00000  76.6%     -    0s
     0     0   83.00000    0   25   47.00000   83.00000  76.6%     -    0s
     0     0   83.00000    0   17   47.00000   83.00000  76.6%     -    0s
     0     0   83.00000    0   18   47.00000   83.00000  76.6%     -    0s
     0     0   83.00000    0   18   47.00000   83.00000  76.6%     -    0s
     0     0   83.00000    0   25   47.00000   83.00000  76.6%     -    0s
     0     0   83.00000    0   25   47.00000   83.00000  76.6%     -    0s
     0     0   83.00000    0   25   47.00000   83.00000  76.6%     -    0s
     0     0   83.00000    0   24   47.00000   83.00000  76.6%     -    0s
     0     0   83.00000    0   25   47.00000   83.00000  76.6%     -    0s
     0     0   83.00000    0   24   47.00000   83.00000  76.6%     -    0s
     0     0   83.00000    0   24   47.00000   83.00000  76.6%     -    0s
     0     0   83.00000    0   24   47.00000   83.00000  76.6%     -    0s
     0     0   83.00000    0   24   47.00000   83.00000  76.6%     -    0s
     0     2   83.00000    0   24   47.00000   83.00000  76.6%     -    0s

Cutting planes:
  Gomory: 1
  Cover: 20
  MIR: 6
  Inf proof: 59
  Zero half: 3

Explored 3250 nodes (370928 simplex iterations) in 2.65 seconds (4.93 work units)
Thread count was 16 (of 16 available processors)

Solution count 5: 47 46 31 ... 17

Optimal solution found (tolerance 1.00e-04)
Best objective 4.700000000000e+01, best bound 4.700000000000e+01, gap 0.0000%

Wrote result file '/root/bgw/data/results/2026_03_24_16_32_22_set_vm-3-t2_vm-3-t2_s016_g002_max.sol'

